/* Objective function */
min: r;

/* Variable bounds */

5=x134+x124+x1234;
5=x24+x234;

x124+x1234 <= 10*r;
x134 <= 10*r;
x1234 + x234 <= 10*r;
x124 + x24 <= 10*r;
x134 + x1234 + x234 <= 20*r;

0 <= r <= 1;

x124 >= 0;
x1234 >=0;
x134 >=0;
x234 >=0;
x24 >=0;